\ This file has been generated by DOcplex
\ ENCODING=ISO-8859-1
\Problem name: {self.PROBLEM.name} LEADER SOTA problem

Maximize
 obj: V
Subject To
 c1: V - 251.866313798015 a0_0 - 295.706644165342 a0_1 - 295.706644165342 a0_2
      <= 0
 c2: V - 295.706644165342 a0_0 - 272.344570702427 a0_1 - 331.321821379110 a0_2
      <= 0
 c3: V - 295.706644165342 a0_0 - 331.321821379110 a0_1 - 272.344570702427 a0_2
      <= 0
 c4: a0_0 + a0_1 + a0_2 = 1

Bounds
       a0_0 <= 1
       a0_1 <= 1
       a0_2 <= 1
       V Free
End
